100
1000
372
372
371
371
367
366
365
365
365
364
363
360
352
350
350
350
348
345
333
331
317
315
310
310
308
306
305
304
304
299
295
292
286
279
277
263
262
262
258
248
241
235
235
231
229
222
208
207
204
203
202
200
196
195
195
195
192
191
186
184
170
168
165
163
162
157
150
139
135
127
126
125
124
124
123
120
117
117
116
109
106
95
82
81
79
76
68
59
58
56
54
53
51
51
40
37
32
25
23
22
